
        $ From http://www.csplib.org/Problems/prob009/data/helmut.pdf
        $ Problem number 15
        $ Sequence length : 23
        language ESSENCE' 1.0
        letting sizemaster be 180
        letting sizes be sequence(2,4,8,10,11,12,15,19,21,22,23,25,26,32,33,34,37,41,43,45,47,88,92)
        